c Reduced graph for miles500 generated by Cyril Grelier
p edge 128 1170
e 1 2
e 1 3
e 1 4
e 1 5
e 1 6
e 1 7
e 1 8
e 1 9
e 1 10
e 1 11
e 1 12
e 1 13
e 1 14
e 1 15
e 1 16
e 1 17
e 1 18
e 1 19
e 1 20
e 1 21
e 1 22
e 1 24
e 1 25
e 1 26
e 1 27
e 1 28
e 1 29
e 1 30
e 1 31
e 1 33
e 1 34
e 1 35
e 1 37
e 1 40
e 1 42
e 1 43
e 1 47
e 1 50
e 2 3
e 2 4
e 2 5
e 2 6
e 2 7
e 2 8
e 2 9
e 2 10
e 2 11
e 2 12
e 2 13
e 2 14
e 2 15
e 2 16
e 2 17
e 2 18
e 2 19
e 2 20
e 2 21
e 2 22
e 2 23
e 2 24
e 2 25
e 2 26
e 2 27
e 2 28
e 2 29
e 2 30
e 2 31
e 2 33
e 2 34
e 2 35
e 2 37
e 2 42
e 2 43
e 2 50
e 3 4
e 3 5
e 3 6
e 3 7
e 3 8
e 3 9
e 3 10
e 3 11
e 3 12
e 3 13
e 3 14
e 3 15
e 3 16
e 3 17
e 3 18
e 3 19
e 3 20
e 3 21
e 3 22
e 3 24
e 3 25
e 3 26
e 3 27
e 3 28
e 3 29
e 3 30
e 3 31
e 3 32
e 3 33
e 3 34
e 3 37
e 3 42
e 3 43
e 3 47
e 3 50
e 4 5
e 4 6
e 4 7
e 4 8
e 4 9
e 4 10
e 4 11
e 4 12
e 4 13
e 4 14
e 4 15
e 4 16
e 4 17
e 4 18
e 4 19
e 4 20
e 4 21
e 4 22
e 4 24
e 4 25
e 4 27
e 4 28
e 4 29
e 4 30
e 4 31
e 4 33
e 4 34
e 4 35
e 4 37
e 4 40
e 4 42
e 4 43
e 4 47
e 5 6
e 5 7
e 5 8
e 5 9
e 5 10
e 5 11
e 5 12
e 5 13
e 5 14
e 5 15
e 5 16
e 5 19
e 5 20
e 5 21
e 5 22
e 5 23
e 5 24
e 5 26
e 5 27
e 5 28
e 5 29
e 5 30
e 5 31
e 5 32
e 5 33
e 5 34
e 5 36
e 5 37
e 5 39
e 5 43
e 5 50
e 5 83
e 6 7
e 6 8
e 6 9
e 6 10
e 6 11
e 6 12
e 6 13
e 6 14
e 6 15
e 6 16
e 6 17
e 6 18
e 6 19
e 6 20
e 6 21
e 6 22
e 6 23
e 6 24
e 6 25
e 6 26
e 6 27
e 6 28
e 6 29
e 6 30
e 6 31
e 6 33
e 6 34
e 6 35
e 6 37
e 6 43
e 6 50
e 7 8
e 7 9
e 7 10
e 7 11
e 7 12
e 7 13
e 7 14
e 7 15
e 7 16
e 7 17
e 7 18
e 7 19
e 7 20
e 7 21
e 7 22
e 7 24
e 7 25
e 7 27
e 7 29
e 7 34
e 7 35
e 7 37
e 7 40
e 7 42
e 7 47
e 7 49
e 7 53
e 7 55
e 7 60
e 7 64
e 8 9
e 8 10
e 8 11
e 8 12
e 8 13
e 8 14
e 8 15
e 8 16
e 8 17
e 8 18
e 8 19
e 8 20
e 8 21
e 8 22
e 8 24
e 8 25
e 8 27
e 8 28
e 8 29
e 8 31
e 8 34
e 8 35
e 8 37
e 8 40
e 8 43
e 8 49
e 8 53
e 8 55
e 9 10
e 9 11
e 9 12
e 9 13
e 9 14
e 9 15
e 9 16
e 9 17
e 9 18
e 9 21
e 9 22
e 9 24
e 9 25
e 9 27
e 9 29
e 9 34
e 9 35
e 9 37
e 9 40
e 9 42
e 9 47
e 9 49
e 9 53
e 9 55
e 9 60
e 9 64
e 10 11
e 10 12
e 10 13
e 10 14
e 10 15
e 10 16
e 10 17
e 10 18
e 10 19
e 10 20
e 10 21
e 10 22
e 10 24
e 10 25
e 10 27
e 10 29
e 10 34
e 10 35
e 10 40
e 10 42
e 10 47
e 10 49
e 10 53
e 10 55
e 10 69
e 11 12
e 11 13
e 11 14
e 11 15
e 11 16
e 11 17
e 11 18
e 11 20
e 11 21
e 11 22
e 11 24
e 11 25
e 11 27
e 11 29
e 11 34
e 11 35
e 11 40
e 11 42
e 11 47
e 11 49
e 11 53
e 11 55
e 11 64
e 11 69
e 12 14
e 12 15
e 12 16
e 12 19
e 12 20
e 12 21
e 12 23
e 12 24
e 12 26
e 12 28
e 12 29
e 12 30
e 12 31
e 12 32
e 12 33
e 12 36
e 12 37
e 12 39
e 12 43
e 12 45
e 12 50
e 12 83
e 13 14
e 13 15
e 13 16
e 13 17
e 13 18
e 13 20
e 13 22
e 13 24
e 13 25
e 13 27
e 13 29
e 13 34
e 13 35
e 13 40
e 13 42
e 13 47
e 13 49
e 13 53
e 13 55
e 13 64
e 13 69
e 14 15
e 14 16
e 14 17
e 14 18
e 14 19
e 14 20
e 14 21
e 14 22
e 14 24
e 14 25
e 14 27
e 14 34
e 14 35
e 14 40
e 14 43
e 14 49
e 14 53
e 14 55
e 14 69
e 15 16
e 15 17
e 15 18
e 15 19
e 15 21
e 15 22
e 15 24
e 15 25
e 15 27
e 15 29
e 15 35
e 15 37
e 15 40
e 15 42
e 15 47
e 15 60
e 15 64
e 16 17
e 16 18
e 16 20
e 16 22
e 16 24
e 16 25
e 16 27
e 16 29
e 16 34
e 16 35
e 16 40
e 16 47
e 16 49
e 16 53
e 16 55
e 16 69
e 17 18
e 17 20
e 17 22
e 17 24
e 17 25
e 17 27
e 17 29
e 17 34
e 17 35
e 17 40
e 17 42
e 17 47
e 17 49
e 17 53
e 17 55
e 17 69
e 18 22
e 18 24
e 18 25
e 18 27
e 18 29
e 18 34
e 18 35
e 18 40
e 18 42
e 18 47
e 18 49
e 18 53
e 18 55
e 18 60
e 18 64
e 19 20
e 19 21
e 19 23
e 19 26
e 19 28
e 19 29
e 19 30
e 19 31
e 19 32
e 19 33
e 19 36
e 19 37
e 19 39
e 19 42
e 19 43
e 19 44
e 19 45
e 19 50
e 20 21
e 20 22
e 20 24
e 20 27
e 20 28
e 20 31
e 20 34
e 20 35
e 20 40
e 20 43
e 20 49
e 20 50
e 20 53
e 20 69
e 21 23
e 21 26
e 21 28
e 21 29
e 21 30
e 21 31
e 21 32
e 21 33
e 21 36
e 21 37
e 21 39
e 21 42
e 21 43
e 21 50
e 22 24
e 22 25
e 22 27
e 22 29
e 22 34
e 22 35
e 22 40
e 22 47
e 22 49
e 22 53
e 22 55
e 22 69
e 23 26
e 23 28
e 23 30
e 23 31
e 23 32
e 23 33
e 23 36
e 23 38
e 23 39
e 23 41
e 23 43
e 23 44
e 23 45
e 23 46
e 23 48
e 23 50
e 23 54
e 23 57
e 23 58
e 23 61
e 23 66
e 23 72
e 23 83
e 24 25
e 24 27
e 24 34
e 24 35
e 24 40
e 24 49
e 24 53
e 24 55
e 24 69
e 25 27
e 25 29
e 25 35
e 25 37
e 25 40
e 25 42
e 25 47
e 25 49
e 25 60
e 25 64
e 25 68
e 26 28
e 26 30
e 26 31
e 26 32
e 26 33
e 26 36
e 26 38
e 26 39
e 26 41
e 26 43
e 26 44
e 26 45
e 26 48
e 26 50
e 26 54
e 26 58
e 26 61
e 26 72
e 26 83
e 27 34
e 27 35
e 27 40
e 27 49
e 27 53
e 27 55
e 27 69
e 28 30
e 28 31
e 28 32
e 28 33
e 28 36
e 28 37
e 28 38
e 28 39
e 28 43
e 28 45
e 28 48
e 28 50
e 28 54
e 28 61
e 28 83
e 29 37
e 29 42
e 29 47
e 29 60
e 29 63
e 29 64
e 29 68
e 30 31
e 30 32
e 30 33
e 30 36
e 30 37
e 30 38
e 30 39
e 30 43
e 30 44
e 30 45
e 30 46
e 30 50
e 30 51
e 30 52
e 30 54
e 30 74
e 31 32
e 31 33
e 31 36
e 31 37
e 31 38
e 31 39
e 31 43
e 31 45
e 31 48
e 31 50
e 31 54
e 31 61
e 31 83
e 32 33
e 32 36
e 32 38
e 32 39
e 32 41
e 32 43
e 32 44
e 32 45
e 32 46
e 32 48
e 32 50
e 32 51
e 32 52
e 32 54
e 32 56
e 32 58
e 32 61
e 32 74
e 33 36
e 33 37
e 33 38
e 33 39
e 33 43
e 33 44
e 33 45
e 33 46
e 33 51
e 33 52
e 33 74
e 33 81
e 34 35
e 34 40
e 34 49
e 34 53
e 34 55
e 34 69
e 35 40
e 35 49
e 35 53
e 35 55
e 35 69
e 36 38
e 36 39
e 36 41
e 36 43
e 36 45
e 36 46
e 36 48
e 36 54
e 36 57
e 36 58
e 36 61
e 36 66
e 36 71
e 36 72
e 36 83
e 37 42
e 37 43
e 37 47
e 37 60
e 37 63
e 37 64
e 38 39
e 38 41
e 38 44
e 38 45
e 38 46
e 38 48
e 38 51
e 38 52
e 38 54
e 38 56
e 38 57
e 38 58
e 38 61
e 38 66
e 38 71
e 38 72
e 38 80
e 39 44
e 39 45
e 39 46
e 39 48
e 39 51
e 39 52
e 39 56
e 39 59
e 39 74
e 39 75
e 39 81
e 40 49
e 40 53
e 40 55
e 40 69
e 41 44
e 41 45
e 41 46
e 41 48
e 41 51
e 41 52
e 41 54
e 41 56
e 41 57
e 41 58
e 41 59
e 41 61
e 41 66
e 41 71
e 41 72
e 41 75
e 41 80
e 41 89
e 41 105
e 42 47
e 42 60
e 42 63
e 42 64
e 42 68
e 42 76
e 42 77
e 43 50
e 43 83
e 44 46
e 44 48
e 44 51
e 44 52
e 44 56
e 44 57
e 44 58
e 44 59
e 44 62
e 44 65
e 44 66
e 44 67
e 44 74
e 44 75
e 45 48
e 45 50
e 45 54
e 45 57
e 45 58
e 45 61
e 45 71
e 45 72
e 45 83
e 46 48
e 46 51
e 46 52
e 46 56
e 46 57
e 46 58
e 46 59
e 46 65
e 46 66
e 46 67
e 46 71
e 46 72
e 46 75
e 47 60
e 47 63
e 47 64
e 47 68
e 47 76
e 48 51
e 48 54
e 48 57
e 48 58
e 48 61
e 48 66
e 48 71
e 48 72
e 48 80
e 49 53
e 49 55
e 49 69
e 50 54
e 50 61
e 50 83
e 51 52
e 51 56
e 51 57
e 51 59
e 51 65
e 51 66
e 51 67
e 51 70
e 51 71
e 51 75
e 51 89
e 52 56
e 52 59
e 52 62
e 52 65
e 52 67
e 52 70
e 52 73
e 52 74
e 52 75
e 52 78
e 52 91
e 53 55
e 53 69
e 54 57
e 54 58
e 54 61
e 54 71
e 54 72
e 54 80
e 54 83
e 55 69
e 56 57
e 56 59
e 56 65
e 56 66
e 56 67
e 56 70
e 56 71
e 56 75
e 56 89
e 56 104
e 56 105
e 57 58
e 57 59
e 57 61
e 57 66
e 57 71
e 57 72
e 57 80
e 57 115
e 58 61
e 58 66
e 58 71
e 58 72
e 58 80
e 58 115
e 59 62
e 59 65
e 59 66
e 59 67
e 59 70
e 59 75
e 59 78
e 59 86
e 59 89
e 59 104
e 60 63
e 60 64
e 60 68
e 60 76
e 60 77
e 60 79
e 60 81
e 60 87
e 60 90
e 61 71
e 61 72
e 61 80
e 61 83
e 62 65
e 62 67
e 62 70
e 62 73
e 62 74
e 62 75
e 62 78
e 62 81
e 62 86
e 62 87
e 62 91
e 62 97
e 62 100
e 62 110
e 63 64
e 63 68
e 63 74
e 63 76
e 63 77
e 63 79
e 63 81
e 63 87
e 63 90
e 63 107
e 63 108
e 63 109
e 64 68
e 64 76
e 64 77
e 64 90
e 65 67
e 65 70
e 65 73
e 65 75
e 65 78
e 65 86
e 65 91
e 65 97
e 65 100
e 65 110
e 66 71
e 66 72
e 66 80
e 66 89
e 66 105
e 67 70
e 67 73
e 67 75
e 67 78
e 67 86
e 67 91
e 67 97
e 67 100
e 68 76
e 68 77
e 68 79
e 68 81
e 68 87
e 68 90
e 68 107
e 68 108
e 68 109
e 70 73
e 70 75
e 70 78
e 70 86
e 70 97
e 70 100
e 70 104
e 70 110
e 70 120
e 71 72
e 71 80
e 71 115
e 72 80
e 72 115
e 73 74
e 73 75
e 73 78
e 73 81
e 73 86
e 73 87
e 73 91
e 73 97
e 73 100
e 73 110
e 74 77
e 74 78
e 74 79
e 74 81
e 74 87
e 74 91
e 75 78
e 75 86
e 76 77
e 76 79
e 76 81
e 76 87
e 76 90
e 76 107
e 76 108
e 76 109
e 77 79
e 77 81
e 77 87
e 77 90
e 77 107
e 77 108
e 77 109
e 78 86
e 78 91
e 78 97
e 78 100
e 78 110
e 79 81
e 79 87
e 79 90
e 79 91
e 79 107
e 79 108
e 79 109
e 80 115
e 80 125
e 80 128
e 81 87
e 81 91
e 82 84
e 82 85
e 82 88
e 82 92
e 82 93
e 82 94
e 82 95
e 82 96
e 82 98
e 82 101
e 82 103
e 82 116
e 84 85
e 84 88
e 84 92
e 84 93
e 84 94
e 84 95
e 84 96
e 84 98
e 84 101
e 84 103
e 84 116
e 85 88
e 85 92
e 85 93
e 85 94
e 85 95
e 85 96
e 85 98
e 85 101
e 85 103
e 85 116
e 86 91
e 86 97
e 86 100
e 86 110
e 87 90
e 87 91
e 88 92
e 88 93
e 88 94
e 88 95
e 88 96
e 88 98
e 88 101
e 88 103
e 89 104
e 89 105
e 89 106
e 89 119
e 89 123
e 89 126
e 90 107
e 90 108
e 90 109
e 92 93
e 92 94
e 92 95
e 92 96
e 92 98
e 92 101
e 92 103
e 93 94
e 93 95
e 93 96
e 93 103
e 93 121
e 94 96
e 94 98
e 94 101
e 94 103
e 95 98
e 95 101
e 95 116
e 95 127
e 96 99
e 96 102
e 96 103
e 97 100
e 97 110
e 97 120
e 98 101
e 98 116
e 99 102
e 99 103
e 99 111
e 99 112
e 99 113
e 99 114
e 99 117
e 99 118
e 100 110
e 101 116
e 102 111
e 102 112
e 102 113
e 102 114
e 102 117
e 102 118
e 102 121
e 104 105
e 104 106
e 104 120
e 104 123
e 105 106
e 105 119
e 105 126
e 106 119
e 106 120
e 106 122
e 106 123
e 106 124
e 107 108
e 107 109
e 108 109
e 111 112
e 111 113
e 111 114
e 111 117
e 111 118
e 112 113
e 112 114
e 112 117
e 112 118
e 113 114
e 113 117
e 113 118
e 114 117
e 114 118
e 115 125
e 115 128
e 116 127
e 117 118
e 119 121
e 119 122
e 119 124
e 119 126
e 120 123
e 120 127
e 121 122
e 121 124
e 122 124
e 125 128
